c read Graph
c width = 22
c time = 28 ms
c width = 5
c time = 44 ms
c width = 5
c time = 4976 ms
s td 31 6 35
b 1 1 2 8
b 2 2 3 8 9
b 3 5 6 13 14
b 4 3 8 9 15
b 5 5 13 14 21
b 6 15 22 23 30
b 7 21 27 28 34
b 8 15 23 30 31
b 9 21 27 33 34
b 10 3 4 5 11
b 11 3 9 10 15 16
b 12 5 12 13 20 21
b 13 15 16 23 24 31
b 14 20 21 26 27 33
b 15 15 16 24 31 32
b 16 20 21 26 32 33
b 17 3 10 15 16 24 32
b 18 3 10 16 17 24 32
b 19 3 10 11 17 24 32
b 20 3 5 11 17 24 32
b 21 5 11 17 18 24 32
b 22 5 11 18 24 25 32
b 23 5 11 12 18 25 32
b 24 5 12 20 21 26 32
b 25 5 12 18 25 26 32
b 26 5 12 18 20 26 32
b 27 12 18 19 20 26
b 28 12 18 20 26 32
b 29 28 34 35
b 30 22 29 30
b 31 6 7 14
1 2
2 4
3 31
3 5
4 11
5 12
6 30
6 8
7 29
7 9
8 13
9 14
10 20
11 17
12 24
13 15
14 16
15 17
16 24
17 18
18 19
19 20
20 21
21 22
22 23
23 25
24 26
25 26
26 28
27 28
